CMPL model generation - running

CMPL version: 1.11.0
Authors: Thomas Schleiff, Mike Steglich
Distributed under the GPLv3 

create model instance ...
write model instance ...
CMPL model generation - finished

Solver - running


Welcome to IBM(R) ILOG(R) CPLEX(R) Interactive Optimizer 12.7.1.0
  with Simplex, Mixed Integer & Barrier Optimizers
5725-A06 5725-A29 5724-Y48 5724-Y49 5724-Y54 5724-Y55 5655-Y21
Copyright IBM Corp. 1988, 2017.  All Rights Reserved.

Type 'help' for a list of available commands.
Type 'help' followed by a command name for more
information on commands.

CPLEX> Specified objective sense: MINIMIZE
Selected objective  name:  line[1]
Selected RHS        name:  RHS
Selected bound      name:  BOUND
Problem '/tmp/cmpl.T23528.mps' read.
Read time = 0.08 sec. (10.11 ticks)
CPLEX> CPXPARAM_Read_APIEncoding                        "UTF-8"
Tried aggregator 3 times.
MIP Presolve eliminated 24093 rows and 37753 columns.
MIP Presolve modified 425 coefficients.
Aggregator did 706 substitutions.
Reduced MIP has 3123 rows, 3996 columns, and 11840 nonzeros.
Reduced MIP has 3786 binaries, 0 generals, 0 SOSs, and 0 indicators.
Presolve time = 0.06 sec. (49.99 ticks)
Found incumbent of value 364.138331 after 0.10 sec. (76.69 ticks)
Probing fixed 8 vars, tightened 0 bounds.
Probing time = 0.03 sec. (5.08 ticks)
Tried aggregator 1 time.
MIP Presolve eliminated 0 rows and 8 columns.
MIP Presolve modified 41 coefficients.
Reduced MIP has 3123 rows, 3988 columns, and 11824 nonzeros.
Reduced MIP has 3988 binaries, 0 generals, 0 SOSs, and 0 indicators.
Presolve time = 0.01 sec. (10.00 ticks)
Probing time = 0.01 sec. (2.82 ticks)
Clique table members: 6842.
MIP emphasis: balance optimality and feasibility.
MIP search method: dynamic search.
Parallel mode: none, using 1 thread.
Root relaxation solution time = 0.01 sec. (5.33 ticks)

        Nodes                                         Cuts/
   Node  Left     Objective  IInf  Best Integer    Best Bound    ItCnt     Gap

*     0+    0                          364.1383      -48.1650           113.23%
      0     0       39.7205    22      364.1383       39.7205       85   89.09%
*     0+    0                           79.5188       39.7205            50.05%
*     0+    0                           40.2234       39.7205             1.25%
*     0     0      integral     0       40.2075      Cuts: 16       89    0.00%
      0     0        cutoff             40.2075       40.2075       89    0.00%
Elapsed time = 0.19 sec. (123.67 ticks, tree = 0.01 MB, solutions = 4)

Clique cuts applied:  4
Cover cuts applied:  8
Gomory fractional cuts applied:  4

Root node processing (before b&c):
  Real time             =    0.20 sec. (125.78 ticks)
Sequential b&c:
  Real time             =    0.00 sec. (0.00 ticks)
                          ------------
Total (root+branch&cut) =    0.20 sec. (125.78 ticks)

Solution pool: 4 solutions saved.

MIP - Integer optimal solution:  Objective =  4.0207542000e+01
Solution time =    0.20 sec.  Iterations = 89  Nodes = 0
Deterministic time = 125.91 ticks  (642.97 ticks/sec)

CPLEX> Incumbent solution written to file '/tmp/cmpl.T23528.gsol'.
CPLEX> 
CMPL: Time used for model generation: 1 seconds
CMPL: Time used for solving the model: 1 seconds


Solution written to ASCII file: results/output_generated_conf_0.1/2016-08-01-5/fair-nonlinear.sol

Solver - finished
